LatticeConstant 1.0 Ang
%block LatticeVectors
 14.56520500 0.00000000 0.00000000
 0.00000000 21.06056200 0.00000000
 0.00000000 0.00000000 10.84148300
%endblock LatticeVectors

NumberOfAtoms 28
AtomicCoordinatesFormat Ang
%block AtomicCoordinatesAndAtomicSpecies
  8.21553346  9.54857993  4.97122664 1 #  1: C
  9.22123346 10.03447893  4.97055864 2 #  2: H
  6.94244046 10.29610593  4.97119064 1 #  3: C
  6.85331346 11.75839893  4.97101164 1 #  4: C
  5.64474246  9.57584393  4.97084364 1 #  5: C
  4.73749746 10.22459593  4.97041064 2 #  6: H
  5.61748346  8.16978793  4.97120864 1 #  7: C
  4.65602846  7.57596493  4.97088864 2 #  8: H
  6.91845146  7.42350993  4.97084564 1 #  9: C
  6.91239746  5.98392993  4.96894864 1 # 10: C
  8.19951346  8.14635193  4.97023764 1 # 11: C
  9.17344646  7.56598393  4.96965064 2 # 12: H
  8.07505346 12.38184993  4.97077064 3 # 13: O
  5.82278446 12.44628293  4.97071964 3 # 14: O
  6.91468846  3.16990793  4.97309364 1 # 15: C
  6.91676146  1.76370593  4.97452164 4 # 16: N
  8.15509546  3.87311393  4.95147964 1 # 17: C
  9.13408246  3.33587393  4.97305564 2 # 18: H
  8.15466446  5.26281093  4.95295964 1 # 19: C
  9.12173546  5.82536993  4.96856164 2 # 20: H
  5.67335346  5.25746693  4.97831464 1 # 21: C
  4.70884046  5.82641793  4.97293964 2 # 22: H
  5.66893546  3.86476593  4.97540364 1 # 23: C
  4.69032846  3.33011293  4.96614564 2 # 24: H
  7.89120046  1.41024593  4.99002864 2 # 25: H
  6.40049346  1.38572093  5.79296264 2 # 26: H
  8.74358646 11.65769193  4.97070964 2 # 27: H
  6.83631446  8.90512993  4.97131164 2 # 28: H
%endblock AtomicCoordinatesAndAtomicSpecies

NumberOfSpecies 4
%block ChemicalSpeciesLabel
 1 6 C
 2 1 H
 3 8 O
 4 7 N
%endblock ChemicalSpeciesLabel
